LAMMPS (29 Sep 2021 - Update 3)
#----------------------------------------------------------------------------------------------
# Author        : André Guerra
# Date          : November, 2021
# Description   :
# Notes         :
# Updated       : July, 2022
#----------------------------------------------------------------------------------------------

# Initialization Section ----------------------------------------------------------------------

units           real
atom_style      full
# pair style dependent on water model selected
if "${wat} == tip4pice" then     "pair_style      lj/cut/tip4p/long 1 2 1 1 0.1577 8.5 8.5 # OM dist, coulombic cutoff"
pair_style      lj/cut/tip4p/long 1 2 1 1 0.1577 8.5 8.5 # OM dist, coulombic cutoff
if "${wat} == tip4p2005" then     "pair_style      lj/cut/tip4p/long 1 2 1 1 0.1546 8.5 8.5 # OM dist, coulombic cutoff"
pair_modify     tail yes
kspace_style    pppm/tip4p 1.0e-5
pair_modify     mix arithmetic # Lorenz – Berthelot mixing rules
neighbor        2.0 bin
neigh_modify    every 1 delay 0 check yes
bond_style      harmonic
angle_style     harmonic

# define new system or restart previous one
if "${restart_sim} == data" then     "read_data ${restartFile}" elif "${restart_sim} == restart"     "read_restart ${restartFile}" else     "read_data system.data"     "replicate   1 1 1"
read_data system.data
Reading data file ...
  orthogonal box = (-16.000000 -16.000000 -16.000000) to (16.000000 16.000000 16.000000)
  1 by 1 by 1 MPI processor grid
  reading atoms ...
  2550 atoms
  scanning bonds ...
  2 = max bonds/atom
  scanning angles ...
  1 = max angles/atom
  reading bonds ...
  1700 bonds
  reading angles ...
  850 angles
Finding 1-2 1-3 1-4 neighbors ...
  special bond factors lj:    0        0        0       
  special bond factors coul:  0        0        0       
     2 = max # of 1-2 neighbors
     1 = max # of 1-3 neighbors
     1 = max # of 1-4 neighbors
     2 = max # of special neighbors
  special bonds CPU = 0.002 seconds
  read_data CPU = 0.021 seconds
replicate   1 1 1
Replicating atoms ...
  orthogonal box = (-16.000000 -16.000000 -16.000000) to (16.000000 16.000000 16.000000)
  1 by 1 by 1 MPI processor grid
  2550 atoms
  1700 bonds
  850 angles
Finding 1-2 1-3 1-4 neighbors ...
  special bond factors lj:    0        0        0       
  special bond factors coul:  0        0        0       
     2 = max # of 1-2 neighbors
     1 = max # of 1-3 neighbors
     1 = max # of 1-4 neighbors
     2 = max # of special neighbors
  special bonds CPU = 0.002 seconds
  replicate CPU = 0.009 seconds

# import molecule information depending on system simulated and water model used
if "(${gas} == water) && (${wat} == tip4pice)" then "include tip4p-ice.data"
include tip4p-ice.data
bond_coeff      1 600.0 0.9572      # K of harmonic, ro of OH bond
angle_coeff     1 75.0 104.52       # K of harmonic, theta of HOH angle
pair_coeff      1 1 0.21084 3.1668  # LJ eps, sig of O-O
pair_coeff      1 2 0 0             # LJ eps, sig of O-H
pair_coeff      2 2 0 0             # LJ eps, sig of H-H

group           water type 1 2      # group H2O atoms
2550 atoms in group water

set type 1 charge -1.1794           # O charge
Setting atom values ...
  850 settings made for charge
set type 2 charge  0.5897           # H charge
Setting atom values ...
  1700 settings made for charge
if "(${gas} == water) && (${wat} == tip4p2005)" then "include tip4p2005.data"

# Variables Definition ------------------------------------------------------------------------

# convert from LAMMPS real units to SI
variable        atm2Pa equal 101325.0
variable        MPa2atm equal 9.86923
variable        A2m equal 1.0e-10
variable        A2tomm2 equal 1.0e-14
variable        A2tom2 equal 1.0e-20
variable        fs2s equal 1.0e-15
variable        A3_m3 equal 1.0e-30
variable        m3_cm3 equal 1.0e6
variable        Avogadro equal 6.0221412e23
variable        kCal2J equal 4184/${Avogadro}
variable        kCal2J equal 4184/6.0221412e+23

#----------------------------------------------------------
# Test conditions
variable        Ptest equal 0.1 # MPa
variable        T equal 275   # K
#----------------------------------------------------------

# constants
variable        dim equal 3                         # dimension of simulation
variable        kB equal 1.3806504e-23              # [J/K] Boltzmann
variable        dt equal 2.0                        # femtoseconds
variable        P equal ${Ptest}*${MPa2atm}
variable        P equal 0.1*${MPa2atm}
variable        P equal 0.1*9.86923
variable        Pdamp equal 1000*${dt}              # damp ~ 1000 timesteps
variable        Pdamp equal 1000*2              
variable        Tdamp equal 100*${dt}               # damp ~ 100 timesteps
variable        Tdamp equal 100*2               
variable        V equal vol                         # volume [A3]
variable        p equal 400                         # correlation length
variable        s equal 5                           # sample interval
variable        d equal $p*$s                       # dump interval
variable        d equal 400*$s                       
variable        d equal 400*5                       
variable        H2O_MM equal 18.02                  # H2O molec weight
variable        CH4_MM equal 16.04                  # CH4 molec weight
variable        CO2_MM equal 44.01                  # CO2 molec weight
variable        H2O_molecs equal count(water)/3     # number of H2O molecs
if "${gas} == ch4" then     "variable        GAS_molecs equal count(methane)/5 # number of CH4 molecs"
# NOTE: 3 atoms/H2O molec; 5 atom/CH4 molec because AA model

#----------------------------------------------------------------------------------------------
# minimization protocol --
if "${restart_sim} == false" then     "thermo          50"     "minimize        1.0e-4 1.0e-6 10000 100000 # etol ftol iter eval"
thermo          50
minimize        1.0e-4 1.0e-6 10000 100000 # etol ftol iter eval
PPPM initialization ...
  extracting TIP4P info from pair style
  using 12-bit tables for long-range coulomb (src/kspace.cpp:340)
  G vector (1/distance) = 0.36696415
  grid = 36 36 36
  stencil order = 5
  estimated absolute RMS force accuracy = 0.0037194064
  estimated relative force accuracy = 1.1200882e-05
  using double precision FFTW3
  3d grid and FFT values/proc = 79507 46656
Neighbor list info ...
  update every 1 steps, delay 0 steps, check yes
  max neighbors/atom: 2000, page size: 100000
  master list distance cutoff = 10.8154
  ghost atom cutoff = 10.8154
  binsize = 5.4077, bins = 6 6 6
  1 neighbor lists, perpetual/occasional/extra = 1 0 0
  (1) pair lj/cut/tip4p/long, perpetual
      attributes: half, newton on
      pair build: half/bin/newton
      stencil: half/bin/3d
      bin: standard
Per MPI rank memory allocation (min/avg/max) = 17.86 | 17.86 | 17.86 Mbytes
Step Temp E_pair E_mol TotEng Press 
       0            0    365.78951    2333.7041    2699.4936   -45261.605 
      50            0     -9365.44    302.57108   -9062.8689   -10621.624 
     100            0   -11465.305    501.87214   -10963.433   -7588.1959 
     150            0   -12318.187    570.26433   -11747.923   -6081.8984 
     200            0   -12725.033    603.94964   -12121.083    -5470.152 
     250            0   -12944.444     626.9124   -12317.531   -5580.0945 
     278            0   -13003.659     619.0021   -12384.656    -5348.624 
Loop time of 7.65334 on 1 procs for 278 steps with 2550 atoms

99.9% CPU use with 1 MPI tasks x no OpenMP threads

Minimization stats:
  Stopping criterion = energy tolerance
  Energy initial, next-to-last, final = 
      2699.49361749855  -12383.4422589857  -12384.6564719104
  Force two-norm initial, final = 2958.9010 60.063154
  Force max component initial, final = 672.21610 9.9373717
  Final line search alpha, max atom move = 0.010103569 0.10040292
  Iterations, force evaluations = 278 505

MPI task timing breakdown:
Section |  min time  |  avg time  |  max time  |%varavg| %total
---------------------------------------------------------------
Pair    | 5.3838     | 5.3838     | 5.3838     |   0.0 | 70.35
Bond    | 0.031989   | 0.031989   | 0.031989   |   0.0 |  0.42
Kspace  | 2.0555     | 2.0555     | 2.0555     |   0.0 | 26.86
Neigh   | 0.13575    | 0.13575    | 0.13575    |   0.0 |  1.77
Comm    | 0.019521   | 0.019521   | 0.019521   |   0.0 |  0.26
Output  | 0.00017524 | 0.00017524 | 0.00017524 |   0.0 |  0.00
Modify  | 0          | 0          | 0          |   0.0 |  0.00
Other   |            | 0.02658    |            |       |  0.35

Nlocal:        2550.00 ave        2550 max        2550 min
Histogram: 1 0 0 0 0 0 0 0 0 0
Nghost:        8837.00 ave        8837 max        8837 min
Histogram: 1 0 0 0 0 0 0 0 0 0
Neighs:        535927.0 ave      535927 max      535927 min
Histogram: 1 0 0 0 0 0 0 0 0 0

Total # of neighbors = 535927
Ave neighs/atom = 210.16745
Ave special neighs/atom = 2.0000000
Neighbor list builds = 11
Dangerous builds = 0
#----------------------------------------------------------------------------------------------
# Simulation protocol --

# assign velocities randomly using a Gaussian distribution
if "${restart_sim} == false" then     "velocity        all create ${T} ${seed} loop geom mom yes rot yes dist gaussian"
velocity        all create ${T} ${seed} loop geom mom yes rot yes dist gaussian
velocity        all create 275 ${seed} loop geom mom yes rot yes dist gaussian
velocity        all create 275 123456 loop geom mom yes rot yes dist gaussian
# assign velocities randomly using a Gaussian distribution
if "${replicate} == true" then     "velocity        all create ${T} ${seed} loop geom mom yes rot yes dist gaussian"

# produce final coordinates file (with cmd dump) for visualization
variable        dumpFreq equal $d*5
variable        dumpFreq equal 2000*5
# dump            trj all atom ${dumpFreq} traj/traj.${ensemble}.lammps
dump            trjdcd all dcd ${dumpFreq} traj/traj.${ensemble}.dcd
dump            trjdcd all dcd 10000 traj/traj.${ensemble}.dcd
dump            trjdcd all dcd 10000 traj/traj.npt.dcd

# make water molecule bonds rigid using share
if "${gas} == water" then     "fix fixshake water shake 0.0001 100 0 a 1 b 1 # eliminate vel components down bonds" else     "fix fixshake water shake 0.0001 100 0 a 2 b 2 # eliminate vel components down bonds"
fix fixshake water shake 0.0001 100 0 a 1 b 1 # eliminate vel components down bonds
       0 = # of size 2 clusters
       0 = # of size 3 clusters
       0 = # of size 4 clusters
     850 = # of frozen angles
  find clusters CPU = 0.000 seconds

variable        endstep equal step
variable        rstrtstep equal ${endstep}
variable        rstrtstep equal 278
reset_timestep  0
variable        ttlstep equal ${rstrtstep}+step
variable        ttlstep equal 278+step

# select ensemble
if "${ensemble} == nve" then     "fix fixnve all nve # micro-canonical ensemble"
if "${ensemble} == nvt" then     "fix fixnvt all nvt temp $T $T ${Tdamp} # nvt ensemble - Nose-Hoover thermostat"
if "${ensemble} == npt" then     "fix fixnpt all npt temp $T $T ${Tdamp} iso $P $P ${Pdamp} drag 20.0 # npt ensemble"
fix fixnpt all npt temp $T $T ${Tdamp} iso $P $P ${Pdamp} drag 20.0 # npt ensemble
fix fixnpt all npt temp 275 $T ${Tdamp} iso $P $P ${Pdamp} drag 20.0 
fix fixnpt all npt temp 275 275 ${Tdamp} iso $P $P ${Pdamp} drag 20.0 
fix fixnpt all npt temp 275 275 200 iso $P $P ${Pdamp} drag 20.0 
fix fixnpt all npt temp 275 275 200 iso 0.986923 $P ${Pdamp} drag 20.0 
fix fixnpt all npt temp 275 275 200 iso 0.986923 0.986923 ${Pdamp} drag 20.0 
fix fixnpt all npt temp 275 275 200 iso 0.986923 0.986923 2000 drag 20.0 

#----------------------------------------------------------------------------------------------
# average property calculations
variable        H2O_mass equal ${H2O_molecs}*(${H2O_MM}/${Avogadro})
variable        H2O_mass equal 850*(${H2O_MM}/${Avogadro})
variable        H2O_mass equal 850*(18.02/${Avogadro})
variable        H2O_mass equal 850*(18.02/6.0221412e+23)
if "${gas} == ch4" then     "variable        GAS_mass equal ${GAS_molecs}*(${CH4_MM}/${Avogadro})"     "variable        rho equal (${H2O_mass}+${GAS_mass})/(vol*${A3_m3}*${m3_cm3})" elif "(${gas} == epm2) || (${gas} == trappe) || (${gas} == zhang)"     "variable        GAS_mass equal ${GAS_molecs}*(${CO2_MM}/${Avogadro})"     "variable        rho equal (${H2O_mass}+${GAS_mass})/(vol*${A3_m3}*${m3_cm3})" else     "variable        rho equal ${H2O_mass}/(vol*${A3_m3}*${m3_cm3})"
variable        rho equal ${H2O_mass}/(vol*${A3_m3}*${m3_cm3})
variable        rho equal 2.54344750335645e-20/(vol*${A3_m3}*${m3_cm3})
variable        rho equal 2.54344750335645e-20/(vol*1e-30*${m3_cm3})
variable        rho equal 2.54344750335645e-20/(vol*1e-30*1000000)
fix             rhoAve all ave/time $s $p $d v_rho                 file ./fix/density.txt
fix             rhoAve all ave/time 5 $p $d v_rho                 file ./fix/density.txt
fix             rhoAve all ave/time 5 400 $d v_rho                 file ./fix/density.txt
fix             rhoAve all ave/time 5 400 2000 v_rho                 file ./fix/density.txt

compute         T all temp
fix             tempAve all ave/time $s $p $d c_T
fix             tempAve all ave/time 5 $p $d c_T
fix             tempAve all ave/time 5 400 $d c_T
fix             tempAve all ave/time 5 400 2000 c_T

variable        P equal press
fix             pressAve all ave/time $s $p $d v_P
fix             pressAve all ave/time 5 $p $d v_P
fix             pressAve all ave/time 5 400 $d v_P
fix             pressAve all ave/time 5 400 2000 v_P

compute         PE all pe pair kspace
if "${gas} == water" then     "variable        PEmol equal c_PE/${H2O_molecs}" else     "variable        PEmol equal c_PE/(${H2O_molecs}+${GAS_molecs})"
variable        PEmol equal c_PE/${H2O_molecs}
variable        PEmol equal c_PE/850
fix             avePEmol all ave/time $s $p $d v_PEmol
fix             avePEmol all ave/time 5 $p $d v_PEmol
fix             avePEmol all ave/time 5 400 $d v_PEmol
fix             avePEmol all ave/time 5 400 2000 v_PEmol

variable        initStep equal step
variable        fracDone equal (step-${initStep})/${steps}
variable        fracDone equal (step-0)/${steps}
variable        fracDone equal (step-0)/20000
variable        ttlFracDone equal v_ttlstep/(${steps}+${rstrtstep})
variable        ttlFracDone equal v_ttlstep/(20000+${rstrtstep})
variable        ttlFracDone equal v_ttlstep/(20000+278)

# setting restart frequency
restart         ${restart_freq} ./restart/restart_${ensemble}_*step.data
restart         2500 ./restart/restart_${ensemble}_*step.data
restart         2500 ./restart/restart_npt_*step.data

timestep        ${dt}   # 2.0 fs
timestep        2   
thermo_style    custom step v_fracDone v_ttlstep v_ttlFracDone temp f_tempAve press f_pressAve                 vol density v_rho f_rhoAve pe v_PEmol f_avePEmol ke etotal

thermo_modify   flush yes # no buffer; output to file is online
thermo          $d # 2000 fs; must be the same as fix calculation intervals
thermo          2000 

# run
run             ${steps} # timesteps
run             20000 
PPPM initialization ...
  extracting TIP4P info from pair style
  using 12-bit tables for long-range coulomb (src/kspace.cpp:340)
  G vector (1/distance) = 0.36696415
  grid = 36 36 36
  stencil order = 5
  estimated absolute RMS force accuracy = 0.0037194064
  estimated relative force accuracy = 1.1200882e-05
  using double precision FFTW3
  3d grid and FFT values/proc = 79507 46656
Per MPI rank memory allocation (min/avg/max) = 17.78 | 17.78 | 17.78 Mbytes
Step v_fracDone v_ttlstep v_ttlFracDone Temp f_tempAve Press f_pressAve Volume Density v_rho f_rhoAve PotEng v_PEmol f_avePEmol KinEng TotEng 
       0            0          278  0.013709439    412.58093            0   -3300.8759            0        32768    0.7759832   0.77619858            0   -13003.659   -15.298422            0    2089.4733   -10914.185 
    2000          0.1         2278   0.11233849    227.40799    192.19614    -1243.078   -1924.8985    29890.041   0.85069864   0.85093476   0.81820388   -11406.473    -13.41938   -13.295055    1151.6842   -10254.789 
    4000          0.2         4278   0.21096755     242.9901    234.56863   -694.75504   -853.78211    28749.931   0.88443402    0.8846795   0.86984892   -11360.847   -13.365703   -13.384511    1230.5982   -10130.249 
    6000          0.3         6278   0.30959661    257.72588    251.44529   -1198.7389   -707.83314    27876.435   0.91214738   0.91240056   0.89856896    -11357.57   -13.361847    -13.36699     1305.226   -10052.344 
    8000          0.4         8278   0.40822566    268.26781    259.99448   -840.56128   -555.50969    27227.845   0.93387549    0.9341347   0.92324398   -11359.651   -13.364295   -13.342261    1358.6145   -10001.036 
   10000          0.5        10278   0.50685472     272.7951    265.39051    419.87915   -317.17887    26859.657    0.9466769   0.94693967    0.9424748   -11347.969   -13.350552   -13.324962    1381.5425   -9966.4266 
   12000          0.6        12278   0.60548378    269.88286    269.56966   -276.78933   -330.83057    26499.017   0.95956077   0.95982711   0.95270206   -11315.141    -13.31193   -13.318148    1366.7938   -9948.3472 
   14000          0.7        14278   0.70411283    275.22468    273.43781    46.562663   -136.76449     26349.65   0.96500019   0.96526804   0.96272827   -11336.681   -13.337271    -13.32969    1393.8469   -9942.8337 
   16000          0.8        16278   0.80274189    279.23861    274.88461    260.01756   -123.41673    26217.994   0.96984604   0.97011524   0.96725794   -11358.383   -13.362804   -13.336622     1414.175   -9944.2081 
   18000          0.9        18278   0.90137094    284.14877    275.38424    326.01424    53.990889     26274.49   0.96776063   0.96802924   0.96801037   -11386.129   -13.395446   -13.342197     1439.042   -9947.0874 
   20000            1        20278            1    273.41641    273.90449   -238.84037   -90.368414    26181.515   0.97119733    0.9714669   0.96956465   -11328.443    -13.32758   -13.334689     1384.689   -9943.7544 
Loop time of 548.081 on 1 procs for 20000 steps with 2550 atoms

Performance: 6.306 ns/day, 3.806 hours/ns, 36.491 timesteps/s
99.8% CPU use with 1 MPI tasks x no OpenMP threads

MPI task timing breakdown:
Section |  min time  |  avg time  |  max time  |%varavg| %total
---------------------------------------------------------------
Pair    | 343.97     | 343.97     | 343.97     |   0.0 | 62.76
Bond    | 0.012324   | 0.012324   | 0.012324   |   0.0 |  0.00
Kspace  | 87.256     | 87.256     | 87.256     |   0.0 | 15.92
Neigh   | 19.482     | 19.482     | 19.482     |   0.0 |  3.55
Comm    | 1.0721     | 1.0721     | 1.0721     |   0.0 |  0.20
Output  | 0.0059006  | 0.0059006  | 0.0059006  |   0.0 |  0.00
Modify  | 95.867     | 95.867     | 95.867     |   0.0 | 17.49
Other   |            | 0.4195     |            |       |  0.08

Nlocal:        2550.00 ave        2550 max        2550 min
Histogram: 1 0 0 0 0 0 0 0 0 0
Nghost:        10572.0 ave       10572 max       10572 min
Histogram: 1 0 0 0 0 0 0 0 0 0
Neighs:        656571.0 ave      656571 max      656571 min
Histogram: 1 0 0 0 0 0 0 0 0 0

Total # of neighbors = 656571
Ave neighs/atom = 257.47882
Ave special neighs/atom = 2.0000000
Neighbor list builds = 1382
Dangerous builds = 0

# write system end state
write_data      ./data/systemEnd_${ensemble}_*step.data
write_data      ./data/systemEnd_npt_*step.data
System init for write_data ...
PPPM initialization ...
  extracting TIP4P info from pair style
  using 12-bit tables for long-range coulomb (src/kspace.cpp:340)
  G vector (1/distance) = 0.37319316
  grid = 36 36 36
  stencil order = 5
  estimated absolute RMS force accuracy = 0.0029795459
  estimated relative force accuracy = 8.9728139e-06
  using double precision FFTW3
  3d grid and FFT values/proc = 79507 46656
WARNING: Not all mixed pair coeffs generated from mixing. Use write_data with 'pair ij' option to store all pair coeffs. (src/write_data.cpp:312)

# output a restart file
write_restart   ./restart/restartEnd_${ensemble}_*step.data
write_restart   ./restart/restartEnd_npt_*step.data
System init for write_restart ...
PPPM initialization ...
  extracting TIP4P info from pair style
  using 12-bit tables for long-range coulomb (src/kspace.cpp:340)
  G vector (1/distance) = 0.37319316
  grid = 36 36 36
  stencil order = 5
  estimated absolute RMS force accuracy = 0.0029795459
  estimated relative force accuracy = 8.9728139e-06
  using double precision FFTW3
  3d grid and FFT values/proc = 79507 46656

# End -----------------------------------------------------------------------------------------
Total wall time: 0:09:15
